(set-logic LIA)

(declare-const tmp___0 Int)
(declare-const tmp___0! Int)
(declare-const tmp Int)
(declare-const tmp! Int)
(declare-const n Int)
(declare-const n! Int)
(declare-const c Int)
(declare-const c! Int)

(declare-const n_0 Int)
(declare-const c_45 Int)
(declare-const c_40 Int)
(declare-const c_39 Int)
(declare-const c_35 Int)

(define-fun inv-f((c Int)(n Int)(tmp Int)(tmp___0 Int)) Bool
